NAME          DCAP_2_4_3_300_SS152
ROWS
 N  OBJ
 L  CON1
 L  CON2
 L  CON3
 L  CON4
 L  CON5
 L  CON6
 L  CON7
 L  CON8
 L  CON9
 L  CON10
 L  CON11
 L  CON12
 E  CON13
 E  CON14
 E  CON15
 E  CON16
 E  CON17
 E  CON18
 E  CON19
 E  CON20
 E  CON21
 E  CON22
 E  CON23
 E  CON24
COLUMNS
    x[1,1]    OBJ       6.180167      CON1      1.000000    
    x[1,1]    CON7      -1.000000     CON8      -1.000000   
    x[1,1]    CON9      -1.000000   
    x[1,2]    OBJ       6.563535      CON2      1.000000    
    x[1,2]    CON8      -1.000000     CON9      -1.000000   
    x[1,3]    OBJ       7.443064      CON3      1.000000    
    x[1,3]    CON9      -1.000000   
    x[2,1]    OBJ       6.732585      CON4      1.000000    
    x[2,1]    CON10     -1.000000     CON11     -1.000000   
    x[2,1]    CON12     -1.000000   
    x[2,2]    OBJ       5.039546      CON5      1.000000    
    x[2,2]    CON11     -1.000000     CON12     -1.000000   
    x[2,3]    OBJ       6.054841      CON6      1.000000    
    x[2,3]    CON12     -1.000000   
    MARKER    'MARKER'                'INTORG'
    u[1,1]    OBJ       48.076654     CON1      -1.000000   
    u[1,2]    OBJ       20.066487     CON2      -1.000000   
    u[1,3]    OBJ       32.230043     CON3      -1.000000   
    u[2,1]    OBJ       49.996186     CON4      -1.000000   
    u[2,2]    OBJ       49.466655     CON5      -1.000000   
    u[2,3]    OBJ       27.484319     CON6      -1.000000   
    y[1,1,1]  OBJ       8.648758      CON7      1.296645    
    y[1,1,1]  CON13     1.000000    
    y[1,1,2]  OBJ       5.495244      CON8      0.829817    
    y[1,1,2]  CON14     1.000000    
    y[1,1,3]  OBJ       8.528118      CON9      1.067068    
    y[1,1,3]  CON15     1.000000    
    y[1,2,1]  OBJ       7.033162      CON7      1.482508    
    y[1,2,1]  CON16     1.000000    
    y[1,2,2]  OBJ       5.481692      CON8      1.453485    
    y[1,2,2]  CON17     1.000000    
    y[1,2,3]  OBJ       8.001235      CON9      1.097785    
    y[1,2,3]  CON18     1.000000    
    y[1,3,1]  OBJ       7.346308      CON7      1.054161    
    y[1,3,1]  CON19     1.000000    
    y[1,3,2]  OBJ       5.481240      CON8      0.967065    
    y[1,3,2]  CON20     1.000000    
    y[1,3,3]  OBJ       6.853535      CON9      0.949061    
    y[1,3,3]  CON21     1.000000    
    y[1,4,1]  OBJ       9.043708      CON7      1.221511    
    y[1,4,1]  CON22     1.000000    
    y[1,4,2]  OBJ       6.214818      CON8      1.385748    
    y[1,4,2]  CON23     1.000000    
    y[1,4,3]  OBJ       5.747921      CON9      0.686232    
    y[1,4,3]  CON24     1.000000    
    y[2,1,1]  OBJ       9.540225      CON10     1.296645    
    y[2,1,1]  CON13     1.000000    
    y[2,1,2]  OBJ       7.677018      CON11     0.829817    
    y[2,1,2]  CON14     1.000000    
    y[2,1,3]  OBJ       8.255385      CON12     1.067068    
    y[2,1,3]  CON15     1.000000    
    y[2,2,1]  OBJ       9.325955      CON10     1.482508    
    y[2,2,1]  CON16     1.000000    
    y[2,2,2]  OBJ       6.332075      CON11     1.453485    
    y[2,2,2]  CON17     1.000000    
    y[2,2,3]  OBJ       6.580777      CON12     1.097785    
    y[2,2,3]  CON18     1.000000    
    y[2,3,1]  OBJ       8.866708      CON10     1.054161    
    y[2,3,1]  CON19     1.000000    
    y[2,3,2]  OBJ       8.637799      CON11     0.967065    
    y[2,3,2]  CON20     1.000000    
    y[2,3,3]  OBJ       9.523606      CON12     0.949061    
    y[2,3,3]  CON21     1.000000    
    y[2,4,1]  OBJ       7.092983      CON10     1.221511    
    y[2,4,1]  CON22     1.000000    
    y[2,4,2]  OBJ       9.364929      CON11     1.385748    
    y[2,4,2]  CON23     1.000000    
    y[2,4,3]  OBJ       6.502230      CON12     0.686232    
    y[2,4,3]  CON24     1.000000    
    z[1,1]    OBJ       825.022461    CON13     1.000000    
    z[1,2]    OBJ       861.507652    CON14     1.000000    
    z[1,3]    OBJ       786.297240    CON15     1.000000    
    z[2,1]    OBJ       587.073799    CON16     1.000000    
    z[2,2]    OBJ       915.245212    CON17     1.000000    
    z[2,3]    OBJ       667.417227    CON18     1.000000    
    z[3,1]    OBJ       592.347191    CON19     1.000000    
    z[3,2]    OBJ       734.535546    CON20     1.000000    
    z[3,3]    OBJ       851.943061    CON21     1.000000    
    z[4,1]    OBJ       848.911197    CON22     1.000000    
    z[4,2]    OBJ       661.715983    CON23     1.000000    
    z[4,3]    OBJ       912.432952    CON24     1.000000    
    MARKER    'MARKER'                 'INTEND'
RHS
    RHS       CON1      -0.000000     CON2      -0.000000   
    RHS       CON3      -0.000000     CON4      -0.000000   
    RHS       CON5      -0.000000     CON6      -0.000000   
    RHS       CON7      -0.000000     CON8      -0.000000   
    RHS       CON9      -0.000000     CON10     -0.000000   
    RHS       CON11     -0.000000     CON12     -0.000000   
    RHS       CON13     1.000000      CON14     1.000000    
    RHS       CON15     1.000000      CON16     1.000000    
    RHS       CON17     1.000000      CON18     1.000000    
    RHS       CON19     1.000000      CON20     1.000000    
    RHS       CON21     1.000000      CON22     1.000000    
    RHS       CON23     1.000000      CON24     1.000000    
BOUNDS
 BV BOUND     u[1,1]  
 BV BOUND     u[1,2]  
 BV BOUND     u[1,3]  
 BV BOUND     u[2,1]  
 BV BOUND     u[2,2]  
 BV BOUND     u[2,3]  
 BV BOUND     y[1,1,1]
 BV BOUND     y[1,1,2]
 BV BOUND     y[1,1,3]
 BV BOUND     y[1,2,1]
 BV BOUND     y[1,2,2]
 BV BOUND     y[1,2,3]
 BV BOUND     y[1,3,1]
 BV BOUND     y[1,3,2]
 BV BOUND     y[1,3,3]
 BV BOUND     y[1,4,1]
 BV BOUND     y[1,4,2]
 BV BOUND     y[1,4,3]
 BV BOUND     y[2,1,1]
 BV BOUND     y[2,1,2]
 BV BOUND     y[2,1,3]
 BV BOUND     y[2,2,1]
 BV BOUND     y[2,2,2]
 BV BOUND     y[2,2,3]
 BV BOUND     y[2,3,1]
 BV BOUND     y[2,3,2]
 BV BOUND     y[2,3,3]
 BV BOUND     y[2,4,1]
 BV BOUND     y[2,4,2]
 BV BOUND     y[2,4,3]
 BV BOUND     z[1,1]  
 BV BOUND     z[1,2]  
 BV BOUND     z[1,3]  
 BV BOUND     z[2,1]  
 BV BOUND     z[2,2]  
 BV BOUND     z[2,3]  
 BV BOUND     z[3,1]  
 BV BOUND     z[3,2]  
 BV BOUND     z[3,3]  
 BV BOUND     z[4,1]  
 BV BOUND     z[4,2]  
 BV BOUND     z[4,3]  
ENDATA
